RT is False
Default write of storage_offers_DA.csv just to have a file (but constraint should be inactive)
Reading model...
...model read.
creating competitive generators file...
...competitive generators recorded.
Loading data...
.. day-ahead data with real-time VRE data read.
Compiling instance...
...instance created.
Creating Offer Mitigation (model will solve as dispatch if TRUE)...
Solving...

Welcome to IBM(R) ILOG(R) CPLEX(R) Interactive Optimizer 12.9.0.0
  with Simplex, Mixed Integer & Barrier Optimizers
5725-A06 5725-A29 5724-Y48 5724-Y49 5724-Y54 5724-Y55 5655-Y21
Copyright IBM Corp. 1988, 2019.  All Rights Reserved.

Type 'help' for a list of available commands.
Type 'help' followed by a command name for more
information on commands.

CPLEX> Logfile 'cplex.log' closed.
Logfile 'C:\Users\llavin\Desktop\test919\logs\tmp1bzk97m2.cplex.log' open.
CPLEX> New value for parallel optimization mode: -1
CPLEX> New value for mixed integer optimality gap tolerance: 0.01
CPLEX> New value for integrality tolerance: 1e-09
CPLEX> New value for feasibility tolerance: 0.01
CPLEX> New value for deterministic time limit in ticks: 75000
CPLEX> Problem 'C:\Users\llavin\Desktop\test919\logs\tmpbrgau4sq.pyomo.lp' read.
Read time = 0.05 sec. (3.04 ticks)
CPLEX> Problem name         : C:\Users\llavin\Desktop\test919\logs\tmpbrgau4sq.pyomo.lp
Objective sense      : Minimize
Variables            :   26081  [Nneg: 1,  Box: 21616,  Free: 4464]
Objective nonzeros   :    2496
Linear constraints   :   27515  [Less: 14006,  Greater: 4416,  Equal: 9093]
  Nonzeros           :   89267
  RHS nonzeros       :   12269

Variables            : Min LB: -5000.000        Max UB: 1000000.       
Objective nonzeros   : Min   : 15.73158         Max   : 124.0997       
Linear constraints   :
  Nonzeros           : Min   : 0.8500000        Max   : 3000.000       
  RHS nonzeros       : Min   : 0.05833333       Max   : 5000.000       
CPLEX> CPXPARAM_Parallel                                -1
CPXPARAM_Simplex_Tolerances_Feasibility          0.01
CPXPARAM_DetTimeLimit                            75000
CPXPARAM_MIP_Tolerances_MIPGap                   0.01
CPXPARAM_MIP_Tolerances_Integrality              1.0000000000000001e-09
Parallel mode: opportunistic, using up to 32 threads for concurrent optimization.
Tried aggregator 1 time.
LP Presolve eliminated 21353 rows and 15460 columns.
Aggregator did 765 substitutions.
Reduced LP has 5397 rows, 9856 columns, and 31830 nonzeros.
Presolve time = 0.05 sec. (30.45 ticks)
Symmetry aggregator did 5565 additional substitutions.

Iteration log . . .
Iteration:     1   Dual objective     =             0.000000
Perturbation started.
Iteration:   101   Dual objective     =             0.000000
Iteration:   325   Dual objective     =             1.154316
Iteration:   596   Dual objective     =             1.745256
Iteration:   848   Dual objective     =             1.893347
Iteration:  1048   Dual objective     =             2.011641
Iteration:  1324   Dual objective     =             2.062325
Iteration:  1571   Dual objective     =             2.092481
Iteration:  1784   Dual objective     =             2.115116
Iteration:  1992   Dual objective     =             2.137475
Iteration:  2195   Dual objective     =             2.150620
Iteration:  2462   Dual objective     =          6581.049091
Iteration:  2792   Dual objective     =         11794.846570
Removing perturbation.
Dual superbasis not built.
Using devex.

Primal simplex solved model.


Primal simplex - Optimal:  Objective =  1.2078340444e+04
Solution time =    0.17 sec.  Iterations = 1707 (1142)
Deterministic time = 78.24 ticks  (457.55 ticks/sec)

CPLEX> Solution written to file 'C:\Users\llavin\Desktop\test919\logs\tmp93ahr3k4.cplex.sol'.
CPLEX> Exporting results... 
...storage offer mitigation file created
Converting model to MPEC...
...converted
NOTE: initial MIP solve with only storage competitive to get feasible solution
Solving...

Welcome to IBM(R) ILOG(R) CPLEX(R) Interactive Optimizer 12.9.0.0
  with Simplex, Mixed Integer & Barrier Optimizers
5725-A06 5725-A29 5724-Y48 5724-Y49 5724-Y54 5724-Y55 5655-Y21
Copyright IBM Corp. 1988, 2019.  All Rights Reserved.

Type 'help' for a list of available commands.
Type 'help' followed by a command name for more
information on commands.

CPLEX> Logfile 'cplex.log' closed.
Logfile 'C:\Users\llavin\Desktop\test919\logs\tmpdduq83up.cplex.log' open.
CPLEX> New value for parallel optimization mode: -1
CPLEX> New value for mixed integer optimality gap tolerance: 0.01
CPLEX> New value for integrality tolerance: 1e-09
CPLEX> New value for feasibility tolerance: 0.01
CPLEX> New value for deterministic time limit in ticks: 75000
CPLEX> Problem 'C:\Users\llavin\Desktop\test919\logs\tmp1gpq5lbd.pyomo.lp' read.
Read time = 0.23 sec. (14.78 ticks)
CPLEX> Problem name         : C:\Users\llavin\Desktop\test919\logs\tmp1gpq5lbd.pyomo.lp
Objective sense      : Maximize
Variables            :   53805  [Nneg: 1,  Box: 22000,  Free: 4464,
                                 Binary: 27340]
Objective nonzeros   :    8978
Linear constraints   :  123205  [Less: 41346,  Greater: 59096,  Equal: 22763]
  Nonzeros           :  291799
  RHS nonzeros       :   67405

Variables            : Min LB: -5000.000        Max UB: 1000000.       
Objective nonzeros   : Min   : 0.05833333       Max   : 833.9167       
Linear constraints   :
  Nonzeros           : Min   : 0.05833333       Max   : 1000000.       
  RHS nonzeros       : Min   : 0.05833333       Max   : 1000000.       
CPLEX> CPXPARAM_Parallel                                -1
CPXPARAM_Simplex_Tolerances_Feasibility          0.01
CPXPARAM_DetTimeLimit                            75000
CPXPARAM_MIP_Tolerances_MIPGap                   0.01
CPXPARAM_MIP_Tolerances_Integrality              1.0000000000000001e-09
Tried aggregator 3 times.
MIP Presolve eliminated 88624 rows and 18926 columns.
MIP Presolve added 3390 rows and 0 columns.
MIP Presolve modified 24899 coefficients.
Aggregator did 12999 substitutions.
Reduced MIP has 24972 rows, 21326 columns, and 71267 nonzeros.
Reduced MIP has 8419 binaries, 0 generals, 0 SOSs, and 0 indicators.
Presolve time = 0.28 sec. (173.74 ticks)
Probing fixed 376 vars, tightened 2840 bounds.
Probing time = 1.19 sec. (871.27 ticks)
Tried aggregator 2 times.
MIP Presolve eliminated 849 rows and 756 columns.
MIP Presolve modified 2190 coefficients.
Aggregator did 44 substitutions.
Reduced MIP has 24079 rows, 20526 columns, and 68681 nonzeros.
Reduced MIP has 8041 binaries, 0 generals, 0 SOSs, and 0 indicators.
Presolve time = 0.09 sec. (67.14 ticks)
Probing time = 0.03 sec. (15.62 ticks)
Clique table members: 6288.
MIP emphasis: balance optimality and feasibility.
MIP search method: dynamic search.
Parallel mode: opportunistic, using up to 32 threads.
Root relaxation solution time = 0.41 sec. (355.22 ticks)

        Nodes                                         Cuts/
   Node  Left     Objective  IInf  Best Integer    Best Bound    ItCnt     Gap

      0     0     2237.6420  1583                   2237.6420     6330         
*     0     0      integral     0     2237.6420     2237.6420     6330    0.00%
Elapsed time = 4.06 sec. (3236.69 ticks, tree = 0.01 MB, solutions = 1)

Root node processing (before b&c):
  Real time             =    4.08 sec. (3238.63 ticks)
Parallel b&c, 32 threads:
  Real time             =    0.00 sec. (0.00 ticks)
  Sync time (average)   =    0.00 sec.
  Wait time (average)   =    0.00 sec.
                          ------------
Total (root+branch&cut) =    4.08 sec. (3238.63 ticks)

Solution pool: 1 solution saved.

MIP - Integer optimal solution:  Objective =  2.2376419846e+03
Solution time =    4.13 sec.  Iterations = 6330  Nodes = 0
Deterministic time = 3238.79 ticks  (785.16 ticks/sec)

CPLEX> Incumbent solution written to file 'C:\Users\llavin\Desktop\test919\logs\tmp31a6tmax.cplex.sol'.
CPLEX> NOTE: no warmstart specified for MIP iteration, default behavior is true
NOTE: resolving with all competitive generators using storage-only solution to warmstart
Solving...

Welcome to IBM(R) ILOG(R) CPLEX(R) Interactive Optimizer 12.9.0.0
  with Simplex, Mixed Integer & Barrier Optimizers
5725-A06 5725-A29 5724-Y48 5724-Y49 5724-Y54 5724-Y55 5655-Y21
Copyright IBM Corp. 1988, 2019.  All Rights Reserved.

Type 'help' for a list of available commands.
Type 'help' followed by a command name for more
information on commands.

CPLEX> Logfile 'cplex.log' closed.
Logfile 'C:\Users\llavin\Desktop\test919\logs\tmp57i56xd2.cplex.log' open.
CPLEX> New value for parallel optimization mode: -1
CPLEX> New value for mixed integer optimality gap tolerance: 0.01
CPLEX> New value for integrality tolerance: 1e-09
CPLEX> New value for feasibility tolerance: 0.01
CPLEX> New value for deterministic time limit in ticks: 75000
CPLEX> Problem 'C:\Users\llavin\Desktop\test919\logs\tmpxtzst0lq.pyomo.lp' read.
Read time = 0.23 sec. (14.81 ticks)
CPLEX> MIP start file 'C:\Users\llavin\Desktop\test919\logs\tmpsq9xzdob.cplex.mst' read.
CPLEX> Problem name         : C:\Users\llavin\Desktop\test919\logs\tmpxtzst0lq.pyomo.lp
Objective sense      : Maximize
Variables            :   54525  [Nneg: 1,  Box: 22720,  Free: 4464,
                                 Binary: 27340]
Objective nonzeros   :    9674
Linear constraints   :  123205  [Less: 41346,  Greater: 59096,  Equal: 22763]
  Nonzeros           :  291799
  RHS nonzeros       :   67405

Variables            : Min LB: -5000.000        Max UB: 1000000.       
Objective nonzeros   : Min   : 0.05833333       Max   : 786.9917       
Linear constraints   :
  Nonzeros           : Min   : 0.05833333       Max   : 1000000.       
  RHS nonzeros       : Min   : 0.05833333       Max   : 1000000.       
CPLEX> CPXPARAM_Parallel                                -1
CPXPARAM_Simplex_Tolerances_Feasibility          0.01
CPXPARAM_DetTimeLimit                            75000
CPXPARAM_MIP_Tolerances_MIPGap                   0.01
CPXPARAM_MIP_Tolerances_Integrality              1.0000000000000001e-09
Warning:  No solution found from 1 MIP starts.
Retaining values of one MIP start for possible repair.
Tried aggregator 3 times.
MIP Presolve eliminated 88624 rows and 19646 columns.
MIP Presolve added 3390 rows and 0 columns.
MIP Presolve modified 24899 coefficients.
Aggregator did 12999 substitutions.
Reduced MIP has 24972 rows, 21326 columns, and 71267 nonzeros.
Reduced MIP has 8419 binaries, 0 generals, 0 SOSs, and 0 indicators.
Presolve time = 0.30 sec. (174.10 ticks)
Probing fixed 376 vars, tightened 2840 bounds.
Probing time = 1.19 sec. (871.27 ticks)
Tried aggregator 2 times.
MIP Presolve eliminated 849 rows and 756 columns.
MIP Presolve modified 2190 coefficients.
Aggregator did 44 substitutions.
Reduced MIP has 24079 rows, 20526 columns, and 68681 nonzeros.
Reduced MIP has 8041 binaries, 0 generals, 0 SOSs, and 0 indicators.
Presolve time = 0.09 sec. (67.17 ticks)
Probing time = 0.05 sec. (15.62 ticks)
Clique table members: 6288.
MIP emphasis: balance optimality and feasibility.
MIP search method: dynamic search.
Parallel mode: opportunistic, using up to 32 threads.
Root relaxation solution time = 0.45 sec. (361.35 ticks)

        Nodes                                         Cuts/
   Node  Left     Objective  IInf  Best Integer    Best Bound    ItCnt     Gap

      0     0   103260.5593  1725                 103260.5593     6425         
      0     0    99346.5602   648                   Cuts: 529     6708         
      0     0    98633.9110   568                   Cuts: 187     6823         
      0     0    98633.9110   533                   Cuts: 119     6875         
      0     0    98633.9110   513                    Cuts: 72     6907         
      0     0    98633.9110   489                    Cuts: 68     6937         
      0     0    98633.9110   472                    Cuts: 53     6960         
      0     0    98633.9110   465                    Cuts: 46     6970         
      0     0    98633.9110   458                    Cuts: 32     6977         
      0     0    93987.7774   424                    Cuts: 36     7048         
      0     0    92269.0768   415                    Cuts: 55     7109         
      0     0    92203.8358   418                    Cuts: 54     7116         
      0     0    92203.8358   419                    Cuts: 36     7117         
Repair heuristic found nothing.
      0    30    infeasible                          Cuts: 27     8129         
Elapsed time = 12.36 sec. (7458.13 ticks, tree = 0.02 MB, solutions = 0)
    438   198    38592.4345   361                  56340.8818    14140         
    735   335    infeasible                        56340.8818    17590         
   1475   393    27518.2192   340                  56340.8818    19701         
   2230   516    infeasible                        56340.8818    27019         
   2910   846     8028.8944   322                  56340.8818    40929         
   3557   907     -718.6593   256                  56340.8818    42139         
   4466  1291     1384.9845   261                  56340.8818    47713         
   5834  3125     1384.9845   249                  56340.8818    50679         
   7259  2816    -1946.1632   276                  56340.8818    50442         
*  8677+ 5501                       -14048.8493    56340.8818           501.04%
Elapsed time = 26.44 sec. (9940.15 ticks, tree = 43.37 MB, solutions = 4)
  11667  4691     1698.3194   165    -1287.3023    56340.8818    55004     --- 
* 12307  4640      integral     0     1698.3194    56340.8818    55030     --- 
* 12481  4202      integral     0     7970.9182    56340.8818    53956  606.83%
* 12558  4483      integral     0     9744.7321    56340.8818    54442  478.17%
  13873  4945    12381.7880   168     9744.7321    56340.8818    55823  478.17%

Clique cuts applied:  8
Cover cuts applied:  1
Implied bound cuts applied:  11
Flow cuts applied:  394
Mixed integer rounding cuts applied:  50
Gomory fractional cuts applied:  66

Root node processing (before b&c):
  Real time             =   10.95 sec. (7449.25 ticks)
Parallel b&c, 32 threads:
  Real time             =   26.44 sec. (7187.28 ticks)
  Sync time (average)   =    1.24 sec.
  Wait time (average)   =    0.00 sec.
                          ------------
Total (root+branch&cut) =   37.39 sec. (14636.53 ticks)

Solution pool: 9 solutions saved.

MIP - Integer optimal solution:  Objective =  9.7447320705e+03
Solution time =   37.41 sec.  Iterations = 75084  Nodes = 13953
Deterministic time = 14636.68 ticks  (391.28 ticks/sec)

CPLEX> Incumbent solution written to file 'C:\Users\llavin\Desktop\test919\logs\tmp1byxx5ym.cplex.sol'.
CPLEX> Exporting results... 
